\ENCODING=ISO-8859-1
\Problem name: ilog.cplex

Maximize
 obj: 909 x(0)#0 + 617 x(1)#1 + 704 x(2)#2 + 815 x(3)#3 + 853 x(4)#4
      + 892 x(5)#5 + 851 x(6)#6 + 769 x(7)#7 + 688 x(8)#8 + 1005 x(9)#9
      + 461 x(10)#10 + 386 x(11)#11 + 781 x(12)#12 + 1081 x(13)#13
      + 821 x(14)#14 + 912 x(15)#15 + 649 x(16)#16 + 1247 x(17)#17
      + 704 x(18)#18 + 614 x(19)#19 + 911 x(20)#20 + 915 x(21)#21
      + 685 x(22)#22 + 862 x(23)#23 + 856 x(24)#24 + 619 x(25)#25
      + 655 x(26)#26 + 893 x(27)#27 + 859 x(28)#28 + 866 x(29)#29
      + 701 x(30)#30 + 634 x(31)#31 + 729 x(32)#32 + 590 x(33)#33
      + 790 x(34)#34 + 523 x(35)#35 + 463 x(36)#36 + 810 x(37)#37
      + 971 x(38)#38 + 1032 x(39)#39 + 593 x(40)#40 + 625 x(41)#41
      + 1020 x(42)#42 + 766 x(43)#43 + 791 x(44)#44 + 472 x(45)#45
      + 656 x(46)#46 + 885 x(47)#47 + 794 x(48)#48 + 499 x(49)#49
      + 547 x(50)#50 + 813 x(51)#51 + 271 x(52)#52 + 714 x(53)#53
      + 563 x(54)#54 + 484 x(55)#55 + 528 x(56)#56 + 1009 x(57)#57
      + 719 x(58)#58 + 775 x(59)#59 + 496 x(60)#60 + 1127 x(61)#61
      + 702 x(62)#62 + 380 x(63)#63 + 848 x(64)#64 + 646 x(65)#65
      + 857 x(66)#66 + 435 x(67)#67 + 850 x(68)#68 + 917 x(69)#69
      + 657 x(70)#70 + 830 x(71)#71 + 629 x(72)#72 + 944 x(73)#73
      + 1052 x(74)#74 + 1084 x(75)#75 + 936 x(76)#76 + 756 x(77)#77
      + 962 x(78)#78 + 641 x(79)#79 + 590 x(80)#80 + 926 x(81)#81
      + 933 x(82)#82 + 888 x(83)#83 + 894 x(84)#84 + 506 x(85)#85
      + 698 x(86)#86 + 821 x(87)#87 + 668 x(88)#88 + 741 x(89)#89
      + 583 x(90)#90 + 885 x(91)#91 + 747 x(92)#92 + 1150 x(93)#93
      + 909 x(94)#94 + 621 x(95)#95 + 805 x(96)#96 + 624 x(97)#97
      + 708 x(98)#98 + 526 x(99)#99
Subject To
 c1: 21 x(0)#0 + 619 x(1)#1 + 736 x(2)#2 + 453 x(3)#3 + 196 x(4)#4 + 636 x(5)#5
     + 849 x(6)#6 + 94 x(7)#7 + 674 x(8)#8 + 728 x(9)#9 + 866 x(10)#10
     + 12 x(11)#11 + 903 x(12)#12 + 696 x(13)#13 + 154 x(14)#14 + 240 x(15)#15
     + 679 x(16)#16 + 962 x(17)#17 + 944 x(18)#18 + 550 x(19)#19 + 638 x(20)#20
     + 425 x(21)#21 + 321 x(22)#22 + 260 x(23)#23 + 424 x(24)#24 + 546 x(25)#25
     + 133 x(26)#26 + 354 x(27)#27 + 923 x(28)#28 + 948 x(29)#29 + 428 x(30)#30
     + 645 x(31)#31 + 48 x(32)#32 + 677 x(33)#33 + 676 x(34)#34 + 163 x(35)#35
     + 398 x(36)#36 + 508 x(37)#37 + 223 x(38)#38 + 510 x(39)#39 + 726 x(40)#40
     + 379 x(41)#41 + 431 x(42)#42 + 649 x(43)#43 + 683 x(44)#44 + 72 x(45)#45
     + 57 x(46)#46 + 900 x(47)#47 + 337 x(48)#48 + 183 x(49)#49 + 746 x(50)#50
     + 879 x(51)#51 + 219 x(52)#52 + 242 x(53)#53 + 332 x(54)#54 + 104 x(55)#55
     + 946 x(56)#56 + 491 x(57)#57 + 799 x(58)#58 + 461 x(59)#59 + 400 x(60)#60
     + 903 x(61)#61 + 640 x(62)#62 + 240 x(63)#63 + 968 x(64)#64 + 595 x(65)#65
     + 49 x(66)#66 + 885 x(67)#67 + 532 x(68)#68 + 556 x(69)#69 + 86 x(70)#70
     + 980 x(71)#71 + 923 x(72)#72 + 919 x(73)#73 + 691 x(74)#74 + 175 x(75)#75
     + 697 x(76)#76 + 461 x(77)#77 + 471 x(78)#78 + 340 x(79)#79 + 556 x(80)#80
     + 780 x(81)#81 + 841 x(82)#82 + 111 x(83)#83 + 591 x(84)#84 + 549 x(85)#85
     + 188 x(86)#86 + 814 x(87)#87 + 177 x(88)#88 + 666 x(89)#89 + 796 x(90)#90
     + 220 x(91)#91 + 971 x(92)#92 + 843 x(93)#93 + 214 x(94)#94 + 906 x(95)#95
     + 276 x(96)#96 + 645 x(97)#97 + 801 x(98)#98 + 130 x(99)#99 <= 26241
 c2: 685 x(0)#0 + 473 x(1)#1 + 278 x(2)#2 + 841 x(3)#3 + 667 x(4)#4
     + 150 x(5)#5 + 488 x(6)#6 + 351 x(7)#7 + 303 x(8)#8 + 678 x(9)#9
     + 268 x(10)#10 + 431 x(11)#11 + 304 x(12)#12 + 657 x(13)#13 + 7 x(14)#14
     + 831 x(15)#15 + 195 x(16)#16 + 787 x(17)#17 + 370 x(18)#18 + 839 x(19)#19
     + 608 x(20)#20 + 190 x(21)#21 + 646 x(22)#22 + 242 x(23)#23 + 660 x(24)#24
     + 408 x(25)#25 + 511 x(26)#26 + 245 x(27)#27 + 253 x(28)#28 + 130 x(29)#29
     + 770 x(30)#30 + 250 x(31)#31 + 345 x(32)#32 + 910 x(33)#33 + 919 x(34)#34
     + 188 x(35)#35 + 302 x(36)#36 + 134 x(37)#37 + 717 x(38)#38 + 471 x(39)#39
     + 496 x(40)#40 + 116 x(41)#41 + 831 x(42)#42 + 271 x(43)#43 + 939 x(44)#44
     + 749 x(45)#45 + 610 x(46)#46 + 854 x(47)#47 + 567 x(48)#48 + 508 x(49)#49
     + 332 x(50)#50 + 618 x(51)#51 + 44 x(52)#52 + 840 x(53)#53 + 460 x(54)#54
     + 276 x(55)#55 + 426 x(56)#56 + 813 x(57)#57 + 403 x(58)#58 + 80 x(59)#59
     + 730 x(60)#60 + 620 x(61)#61 + 622 x(62)#62 + 365 x(63)#63 + 169 x(64)#64
     + 321 x(65)#65 + 800 x(66)#66 + 269 x(67)#67 + 795 x(68)#68 + 736 x(69)#69
     + 474 x(70)#70 + 673 x(71)#71 + 665 x(72)#72 + 887 x(73)#73 + 986 x(74)#74
     + 876 x(75)#75 + 536 x(76)#76 + 489 x(77)#77 + 380 x(78)#78 + 908 x(79)#79
     + 481 x(80)#80 + 144 x(81)#81 + 739 x(82)#82 + 975 x(83)#83 + 311 x(84)#84
     + 264 x(85)#85 + 709 x(86)#86 + 379 x(87)#87 + 397 x(88)#88 + 459 x(89)#89
     + 202 x(90)#90 + 620 x(91)#91 + 324 x(92)#92 + 640 x(93)#93 + 379 x(94)#94
     + 204 x(95)#95 + 981 x(96)#96 + 883 x(97)#97 + 227 x(98)#98 + 20 x(99)#99
     <= 25187
 c3: 594 x(0)#0 + 779 x(1)#1 + 606 x(2)#2 + 164 x(3)#3 + 908 x(4)#4
     + 142 x(5)#5 + 299 x(6)#6 + 716 x(7)#7 + 484 x(8)#8 + 805 x(9)#9
     + 635 x(10)#10 + 721 x(11)#11 + 44 x(12)#12 + 542 x(13)#13 + 535 x(14)#14
     + 726 x(15)#15 + 17 x(16)#16 + 997 x(17)#17 + 459 x(18)#18 + 376 x(19)#19
     + 334 x(20)#20 + 90 x(21)#21 + 964 x(22)#22 + 599 x(23)#23 + 969 x(24)#24
     + 289 x(25)#25 + 891 x(26)#26 + 797 x(27)#27 + 4 x(28)#28 + 580 x(29)#29
     + 710 x(30)#30 + 369 x(31)#31 + 468 x(32)#32 + 121 x(33)#33 + 627 x(34)#34
     + 225 x(35)#35 + 721 x(36)#36 + 986 x(37)#37 + 84 x(38)#38 + 720 x(39)#39
     + 730 x(40)#40 + 656 x(41)#41 + 521 x(42)#42 + 629 x(43)#43 + 365 x(44)#44
     + 127 x(45)#45 + 568 x(46)#46 + 607 x(47)#47 + 553 x(48)#48 + 448 x(49)#49
     + 133 x(50)#50 + 2 x(51)#51 + 236 x(52)#52 + 866 x(53)#53 + 489 x(54)#54
     + 371 x(55)#55 + 84 x(56)#56 + 621 x(57)#57 + 668 x(58)#58 + 786 x(59)#59
     + 398 x(60)#60 + 811 x(61)#61 + 739 x(62)#62 + 164 x(63)#63 + 736 x(64)#64
     + 111 x(65)#65 + 871 x(66)#66 + 438 x(67)#67 + 767 x(68)#68 + 635 x(69)#69
     + 91 x(70)#70 + 737 x(71)#71 + 463 x(72)#72 + 731 x(73)#73 + 612 x(74)#74
     + 272 x(75)#75 + 886 x(76)#76 + 507 x(77)#77 + 966 x(78)#78 + 347 x(79)#79
     + 399 x(80)#80 + 449 x(81)#81 + 978 x(82)#82 + 225 x(83)#83 + 664 x(84)#84
     + 58 x(85)#85 + 785 x(86)#86 + 815 x(87)#87 + 171 x(88)#88 + 725 x(89)#89
     + 511 x(90)#90 + 810 x(91)#91 + 724 x(92)#92 + 625 x(93)#93 + 312 x(94)#94
     + 406 x(95)#95 + 199 x(96)#96 + 136 x(97)#97 + 36 x(98)#98 + 997 x(99)#99
     <= 25932
 c4: 342 x(0)#0 + 649 x(1)#1 + 586 x(2)#2 + 70 x(3)#3 + 197 x(4)#4 + 518 x(5)#5
     + 5 x(6)#6 + 363 x(7)#7 + 287 x(8)#8 + 634 x(9)#9 + 297 x(10)#10
     + 289 x(11)#11 + 284 x(12)#12 + 631 x(13)#13 + 907 x(14)#14 + 389 x(15)#15
     + 185 x(16)#16 + 587 x(17)#17 + 68 x(18)#18 + 659 x(19)#19 + 750 x(20)#20
     + 953 x(21)#21 + 116 x(22)#22 + 654 x(23)#23 + 941 x(24)#24 + 414 x(25)#25
     + 102 x(26)#26 + 622 x(27)#27 + 280 x(28)#28 + 306 x(29)#29 + 176 x(30)#30
     + 860 x(31)#31 + 447 x(32)#32 + 539 x(33)#33 + 271 x(34)#34 + 479 x(35)#35
     + 228 x(36)#36 + 696 x(37)#37 + 924 x(38)#38 + 685 x(39)#39 + 343 x(40)#40
     + 643 x(41)#41 + 640 x(42)#42 + 537 x(43)#43 + 952 x(44)#44 + 124 x(45)#45
     + 353 x(46)#46 + 142 x(47)#47 + 464 x(48)#48 + 484 x(49)#49 + 66 x(50)#50
     + 927 x(51)#51 + 126 x(52)#52 + 152 x(53)#53 + 3 x(54)#54 + 100 x(55)#55
     + 946 x(56)#56 + 986 x(57)#57 + 294 x(58)#58 + 724 x(59)#59 + 115 x(60)#60
     + 766 x(61)#61 + 940 x(62)#62 + 829 x(63)#63 + 249 x(64)#64 + 162 x(65)#65
     + 363 x(66)#66 + 181 x(67)#67 + 403 x(68)#68 + 283 x(69)#69 + 721 x(70)#70
     + 862 x(71)#71 + 302 x(72)#72 + 246 x(73)#73 + 517 x(74)#74 + 883 x(75)#75
     + x(76)#76 + 317 x(77)#77 + 410 x(78)#78 + 437 x(79)#79 + 636 x(80)#80
     + 430 x(81)#81 + 714 x(82)#82 + 259 x(83)#83 + 922 x(84)#84 + 667 x(85)#85
     + 52 x(86)#86 + 78 x(87)#87 + 34 x(88)#88 + 260 x(89)#89 + 278 x(90)#90
     + 80 x(91)#91 + 929 x(92)#92 + 388 x(93)#93 + 569 x(94)#94 + 312 x(95)#95
     + 781 x(96)#96 + 253 x(97)#97 + 518 x(98)#98 + 542 x(99)#99 <= 22543
 c5: 818 x(0)#0 + 252 x(1)#1 + 572 x(2)#2 + 286 x(3)#3 + 277 x(4)#4
     + 573 x(5)#5 + 191 x(6)#6 + 271 x(7)#7 + 746 x(8)#8 + 333 x(9)#9
     + 231 x(10)#10 + 65 x(11)#11 + 701 x(12)#12 + 985 x(13)#13 + 926 x(14)#14
     + 520 x(15)#15 + 10 x(16)#16 + 874 x(17)#17 + 503 x(18)#18 + 514 x(19)#19
     + 206 x(20)#20 + 805 x(21)#21 + 959 x(22)#22 + 282 x(23)#23 + 962 x(24)#24
     + 75 x(25)#25 + 661 x(26)#26 + 483 x(27)#27 + 778 x(28)#28 + 429 x(29)#29
     + 672 x(30)#30 + 156 x(31)#31 + 426 x(32)#32 + 78 x(33)#33 + 245 x(34)#34
     + 494 x(35)#35 + 315 x(36)#36 + 630 x(37)#37 + 437 x(38)#38 + 637 x(39)#39
     + 352 x(40)#40 + 858 x(41)#41 + 632 x(42)#42 + 890 x(43)#43 + 596 x(44)#44
     + 589 x(45)#45 + 589 x(46)#46 + 797 x(47)#47 + 583 x(48)#48 + 644 x(49)#49
     + 420 x(50)#50 + 714 x(51)#51 + 557 x(52)#52 + 68 x(53)#53 + 913 x(54)#54
     + 75 x(55)#55 + 236 x(56)#56 + 996 x(57)#57 + 945 x(58)#58 + 127 x(59)#59
     + 377 x(60)#60 + 954 x(61)#61 + 433 x(62)#62 + 70 x(63)#63 + 890 x(64)#64
     + 799 x(65)#65 + 404 x(66)#66 + 20 x(67)#67 + 401 x(68)#68 + 538 x(69)#69
     + 937 x(70)#70 + 838 x(71)#71 + 5 x(72)#72 + 773 x(73)#73 + 717 x(74)#74
     + 848 x(75)#75 + 424 x(76)#76 + 561 x(77)#77 + 334 x(78)#78 + 330 x(79)#79
     + 849 x(80)#80 + 346 x(81)#81 + 763 x(82)#82 + 518 x(83)#83 + 887 x(84)#84
     + 610 x(85)#85 + 996 x(86)#86 + 194 x(87)#87 + 98 x(88)#88 + 815 x(89)#89
     + 437 x(90)#90 + 565 x(91)#91 + 417 x(92)#92 + 972 x(93)#93 + 921 x(94)#94
     + 252 x(95)#95 + 963 x(96)#96 + 648 x(97)#97 + x(98)#98 + 10 x(99)#99
     <= 26437
Bounds
 0 <= x(0)#0 <= 1
 0 <= x(1)#1 <= 1
 0 <= x(2)#2 <= 1
 0 <= x(3)#3 <= 1
 0 <= x(4)#4 <= 1
 0 <= x(5)#5 <= 1
 0 <= x(6)#6 <= 1
 0 <= x(7)#7 <= 1
 0 <= x(8)#8 <= 1
 0 <= x(9)#9 <= 1
 0 <= x(10)#10 <= 1
 0 <= x(11)#11 <= 1
 0 <= x(12)#12 <= 1
 0 <= x(13)#13 <= 1
 0 <= x(14)#14 <= 1
 0 <= x(15)#15 <= 1
 0 <= x(16)#16 <= 1
 0 <= x(17)#17 <= 1
 0 <= x(18)#18 <= 1
 0 <= x(19)#19 <= 1
 0 <= x(20)#20 <= 1
 0 <= x(21)#21 <= 1
 0 <= x(22)#22 <= 1
 0 <= x(23)#23 <= 1
 0 <= x(24)#24 <= 1
 0 <= x(25)#25 <= 1
 0 <= x(26)#26 <= 1
 0 <= x(27)#27 <= 1
 0 <= x(28)#28 <= 1
 0 <= x(29)#29 <= 1
 0 <= x(30)#30 <= 1
 0 <= x(31)#31 <= 1
 0 <= x(32)#32 <= 1
 0 <= x(33)#33 <= 1
 0 <= x(34)#34 <= 1
 0 <= x(35)#35 <= 1
 0 <= x(36)#36 <= 1
 0 <= x(37)#37 <= 1
 0 <= x(38)#38 <= 1
 0 <= x(39)#39 <= 1
 0 <= x(40)#40 <= 1
 0 <= x(41)#41 <= 1
 0 <= x(42)#42 <= 1
 0 <= x(43)#43 <= 1
 0 <= x(44)#44 <= 1
 0 <= x(45)#45 <= 1
 0 <= x(46)#46 <= 1
 0 <= x(47)#47 <= 1
 0 <= x(48)#48 <= 1
 0 <= x(49)#49 <= 1
 0 <= x(50)#50 <= 1
 0 <= x(51)#51 <= 1
 0 <= x(52)#52 <= 1
 0 <= x(53)#53 <= 1
 0 <= x(54)#54 <= 1
 0 <= x(55)#55 <= 1
 0 <= x(56)#56 <= 1
 0 <= x(57)#57 <= 1
 0 <= x(58)#58 <= 1
 0 <= x(59)#59 <= 1
 0 <= x(60)#60 <= 1
 0 <= x(61)#61 <= 1
 0 <= x(62)#62 <= 1
 0 <= x(63)#63 <= 1
 0 <= x(64)#64 <= 1
 0 <= x(65)#65 <= 1
 0 <= x(66)#66 <= 1
 0 <= x(67)#67 <= 1
 0 <= x(68)#68 <= 1
 0 <= x(69)#69 <= 1
 0 <= x(70)#70 <= 1
 0 <= x(71)#71 <= 1
 0 <= x(72)#72 <= 1
 0 <= x(73)#73 <= 1
 0 <= x(74)#74 <= 1
 0 <= x(75)#75 <= 1
 0 <= x(76)#76 <= 1
 0 <= x(77)#77 <= 1
 0 <= x(78)#78 <= 1
 0 <= x(79)#79 <= 1
 0 <= x(80)#80 <= 1
 0 <= x(81)#81 <= 1
 0 <= x(82)#82 <= 1
 0 <= x(83)#83 <= 1
 0 <= x(84)#84 <= 1
 0 <= x(85)#85 <= 1
 0 <= x(86)#86 <= 1
 0 <= x(87)#87 <= 1
 0 <= x(88)#88 <= 1
 0 <= x(89)#89 <= 1
 0 <= x(90)#90 <= 1
 0 <= x(91)#91 <= 1
 0 <= x(92)#92 <= 1
 0 <= x(93)#93 <= 1
 0 <= x(94)#94 <= 1
 0 <= x(95)#95 <= 1
 0 <= x(96)#96 <= 1
 0 <= x(97)#97 <= 1
 0 <= x(98)#98 <= 1
 0 <= x(99)#99 <= 1
Generals
 x(0)#0  x(1)#1  x(2)#2  x(3)#3  x(4)#4  x(5)#5  x(6)#6  x(7)#7  x(8)#8 
 x(9)#9  x(10)#10  x(11)#11  x(12)#12  x(13)#13  x(14)#14  x(15)#15  x(16)#16 
 x(17)#17  x(18)#18  x(19)#19  x(20)#20  x(21)#21  x(22)#22  x(23)#23 
 x(24)#24  x(25)#25  x(26)#26  x(27)#27  x(28)#28  x(29)#29  x(30)#30 
 x(31)#31  x(32)#32  x(33)#33  x(34)#34  x(35)#35  x(36)#36  x(37)#37 
 x(38)#38  x(39)#39  x(40)#40  x(41)#41  x(42)#42  x(43)#43  x(44)#44 
 x(45)#45  x(46)#46  x(47)#47  x(48)#48  x(49)#49  x(50)#50  x(51)#51 
 x(52)#52  x(53)#53  x(54)#54  x(55)#55  x(56)#56  x(57)#57  x(58)#58 
 x(59)#59  x(60)#60  x(61)#61  x(62)#62  x(63)#63  x(64)#64  x(65)#65 
 x(66)#66  x(67)#67  x(68)#68  x(69)#69  x(70)#70  x(71)#71  x(72)#72 
 x(73)#73  x(74)#74  x(75)#75  x(76)#76  x(77)#77  x(78)#78  x(79)#79 
 x(80)#80  x(81)#81  x(82)#82  x(83)#83  x(84)#84  x(85)#85  x(86)#86 
 x(87)#87  x(88)#88  x(89)#89  x(90)#90  x(91)#91  x(92)#92  x(93)#93 
 x(94)#94  x(95)#95  x(96)#96  x(97)#97  x(98)#98  x(99)#99 
End
